<?xml version = "1.0" standalone="yes"?>
<!-- This file has been generated by DOcplex version 2.23.222  -->
<CPLEXSolution version="1.0">
 <header
   problemName="CVRP"
   objectiveValue="20091.3"
  />
 <variables>
  <variable name="x_0_2" index="1" value="1.00000"/>
  <variable name="x_0_4" index="3" value="1.00000"/>
  <variable name="x_0_5" index="4" value="1.00000"/>
  <variable name="x_0_6" index="5" value="1.00000"/>
  <variable name="x_0_7" index="6" value="1.00000"/>
  <variable name="x_0_8" index="7" value="1.00000"/>
  <variable name="x_0_9" index="8" value="1.00000"/>
  <variable name="x_0_10" index="9" value="1.00000"/>
  <variable name="x_0_12" index="11" value="1.00000"/>
  <variable name="x_0_13" index="12" value="1.00000"/>
  <variable name="x_0_16" index="15" value="1.00000"/>
  <variable name="x_0_17" index="16" value="1.00000"/>
  <variable name="x_0_18" index="17" value="1.00000"/>
  <variable name="x_0_20" index="19" value="1.00000"/>
  <variable name="x_0_21" index="20" value="1.00000"/>
  <variable name="x_0_22" index="21" value="1.00000"/>
  <variable name="x_0_27" index="26" value="1.00000"/>
  <variable name="x_0_29" index="28" value="1.00000"/>
  <variable name="x_1_0" index="29" value="1.00000"/>
  <variable name="x_2_28" index="85" value="1.00000"/>
  <variable name="x_3_0" index="87" value="1.00000"/>
  <variable name="x_4_19" index="134" value="1.00000"/>
  <variable name="x_5_0" index="145" value="1.00000"/>
  <variable name="x_6_14" index="187" value="1.00000"/>
  <variable name="x_7_15" index="217" value="1.00000"/>
  <variable name="x_8_26" index="257" value="1.00000"/>
  <variable name="x_9_0" index="261" value="1.00000"/>
  <variable name="x_10_11" index="300" value="1.00000"/>
  <variable name="x_11_25" index="343" value="1.00000"/>
  <variable name="x_12_0" index="348" value="1.00000"/>
  <variable name="x_13_3" index="380" value="1.00000"/>
  <variable name="x_14_24" index="429" value="1.00000"/>
  <variable name="x_15_0" index="435" value="1.00000"/>
  <variable name="x_16_0" index="464" value="1.00000"/>
  <variable name="x_17_0" index="493" value="1.00000"/>
  <variable name="x_18_23" index="544" value="1.00000"/>
  <variable name="x_19_0" index="551" value="1.00000"/>
  <variable name="x_20_0" index="580" value="1.00000"/>
  <variable name="x_21_0" index="609" value="1.00000"/>
  <variable name="x_22_1" index="639" value="1.00000"/>
  <variable name="x_23_0" index="667" value="1.00000"/>
  <variable name="x_24_0" index="696" value="1.00000"/>
  <variable name="x_25_0" index="725" value="1.00000"/>
  <variable name="x_26_0" index="754" value="1.00000"/>
  <variable name="x_27_0" index="783" value="1.00000"/>
  <variable name="x_28_0" index="812" value="1.00000"/>
  <variable name="x_29_0" index="841" value="1.00000"/>
  <variable name="u_1" index="870" value="43.00000"/>
  <variable name="u_2" index="871" value="40.00000"/>
  <variable name="u_3" index="872" value="50.00000"/>
  <variable name="u_4" index="873" value="35.00000"/>
  <variable name="u_5" index="874" value="53.00000"/>
  <variable name="u_6" index="875" value="6.00000"/>
  <variable name="u_7" index="876" value="39.00000"/>
  <variable name="u_8" index="877" value="41.00000"/>
  <variable name="u_9" index="878" value="47.00000"/>
  <variable name="u_10" index="879" value="31.00000"/>
  <variable name="u_11" index="880" value="46.00000"/>
  <variable name="u_12" index="881" value="53.00000"/>
  <variable name="u_13" index="882" value="19.00000"/>
  <variable name="u_14" index="883" value="16.00000"/>
  <variable name="u_15" index="884" value="46.00000"/>
  <variable name="u_16" index="885" value="38.00000"/>
  <variable name="u_17" index="886" value="43.00000"/>
  <variable name="u_18" index="887" value="35.00000"/>
  <variable name="u_19" index="888" value="42.00000"/>
  <variable name="u_20" index="889" value="53.00000"/>
  <variable name="u_21" index="890" value="53.00000"/>
  <variable name="u_22" index="891" value="3.00000"/>
  <variable name="u_23" index="892" value="53.00000"/>
  <variable name="u_24" index="893" value="52.00000"/>
  <variable name="u_25" index="894" value="53.00000"/>
  <variable name="u_26" index="895" value="53.00000"/>
  <variable name="u_27" index="896" value="51.00000"/>
  <variable name="u_28" index="897" value="51.00000"/>
  <variable name="u_29" index="898" value="37.00000"/>
 </variables>
</CPLEXSolution>
